************************************************************************
file with basedata            : j9019_.bas
initial value random generator: 634276447
************************************************************************
projects                      :  1
jobs (incl. supersource/sink ):  92
horizon                       :  466
RESOURCES
  - renewable                 :  4   R
  - nonrenewable              :  0   N
  - doubly constrained        :  0   D
************************************************************************
PROJECT INFORMATION:
pronr.  #jobs rel.date duedate tardcost  MPM-Time
    1     90      0       66        8       66
************************************************************************
PRECEDENCE RELATIONS:
jobnr.    #modes  #successors   successors
   1        1          3           2   3   4
   2        1          3           5  44  49
   3        1          3           8   9  10
   4        1          3          14  19  31
   5        1          3           6  11  16
   6        1          3           7  41  62
   7        1          3          12  13  27
   8        1          3          15  23  45
   9        1          2          24  27
  10        1          2          25  26
  11        1          3          17  21  40
  12        1          3          22  28  52
  13        1          1          36
  14        1          3          18  36  77
  15        1          2          53  74
  16        1          3          20  30  64
  17        1          1          41
  18        1          1          27
  19        1          2          34  60
  20        1          3          29  38  65
  21        1          1          84
  22        1          2          55  70
  23        1          2          33  47
  24        1          2          36  37
  25        1          2          42  56
  26        1          1          75
  27        1          3          48  59  63
  28        1          1          68
  29        1          2          48  82
  30        1          3          32  35  57
  31        1          1          87
  32        1          1          47
  33        1          1          39
  34        1          2          38  63
  35        1          2          47  58
  36        1          1          80
  37        1          1          54
  38        1          2          76  79
  39        1          2          46  89
  40        1          1          43
  41        1          1          73
  42        1          2          57  72
  43        1          3          55  68  90
  44        1          1          52
  45        1          1          81
  46        1          3          56  67  78
  47        1          3          51  56  77
  48        1          3          67  69  87
  49        1          3          50  61  79
  50        1          3          51  53  65
  51        1          1          82
  52        1          2          60  69
  53        1          3          55  62  75
  54        1          1          58
  55        1          3          57  60  76
  56        1          1          90
  57        1          1          69
  58        1          2          61  66
  59        1          2          64  73
  60        1          1          71
  61        1          3          63  70  87
  62        1          2          68  71
  63        1          2          71  73
  64        1          2          65  70
  65        1          2          67  76
  66        1          3          74  79  80
  67        1          1          88
  68        1          1          85
  69        1          1          84
  70        1          1          84
  71        1          2          78  83
  72        1          2          80  88
  73        1          1          82
  74        1          2          77  85
  75        1          1          78
  76        1          1          83
  77        1          1          83
  78        1          1          81
  79        1          1          91
  80        1          1          90
  81        1          1          85
  82        1          1          86
  83        1          2          86  89
  84        1          1          91
  85        1          1          86
  86        1          1          88
  87        1          1          89
  88        1          1          91
  89        1          1          92
  90        1          1          92
  91        1          1          92
  92        1          0        
************************************************************************
REQUESTS/DURATIONS:
jobnr. mode duration  R 1  R 2  R 3  R 4
------------------------------------------------------------------------
  1      1     0       0    0    0    0
  2      1     7       0    0    4    0
  3      1     1       0    0    1    0
  4      1    10       9    0    0    0
  5      1     5       2    0    0    0
  6      1     7       0    0    5    0
  7      1     2       0    0    2    0
  8      1    10       1    0    0    0
  9      1     9       9    0    0    0
 10      1     1       0    0    3    0
 11      1     9       5    0    0    0
 12      1     1       0    0    4    0
 13      1    10       0    1    0    0
 14      1     6       0    0    0    6
 15      1     2       3    0    0    0
 16      1     8       0    0    0    8
 17      1     6       9    0    0    0
 18      1     1       0    0    6    0
 19      1     6       0    0    0    8
 20      1     4       0    0    9    0
 21      1     6       0    3    0    0
 22      1     2      10    0    0    0
 23      1     9       0    0    6    0
 24      1     6       0    0    9    0
 25      1    10      10    0    0    0
 26      1     5       0    3    0    0
 27      1     1       0    0    6    0
 28      1     5       8    0    0    0
 29      1     2       1    0    0    0
 30      1     4       0    0    0   10
 31      1     7       2    0    0    0
 32      1     2       7    0    0    0
 33      1     4       0   10    0    0
 34      1     8       0    0    2    0
 35      1     4       0    3    0    0
 36      1     7       0    0    0    9
 37      1     3       0    0    4    0
 38      1     4       7    0    0    0
 39      1     1       0    0    0    9
 40      1     4       7    0    0    0
 41      1     4       0    0    0    3
 42      1    10       3    0    0    0
 43      1     6       0    0    9    0
 44      1     7       4    0    0    0
 45      1     2       0    0    2    0
 46      1     2       0   10    0    0
 47      1     6       0    0    6    0
 48      1     9       0    0    0    6
 49      1    10       3    0    0    0
 50      1     5       0   10    0    0
 51      1     4       0    0    7    0
 52      1     9       0    6    0    0
 53      1     9       0    0    0    9
 54      1    10       0    0    0    7
 55      1     9       0    7    0    0
 56      1     7       7    0    0    0
 57      1    10       0    0    4    0
 58      1     3       0    0    0    9
 59      1     8       0    0    9    0
 60      1     1       0    0    9    0
 61      1     4       0    0    8    0
 62      1     9       0    0    0    7
 63      1     1       0    0    5    0
 64      1     6       6    0    0    0
 65      1     7       4    0    0    0
 66      1     3       0    0    0    1
 67      1     2       0    0    7    0
 68      1    10       0    0    0    4
 69      1     9       0    0    0   10
 70      1     5       0    0    7    0
 71      1     1       7    0    0    0
 72      1     2       0    0    2    0
 73      1     7       0    0    0    7
 74      1     2      10    0    0    0
 75      1     7       0    0    9    0
 76      1     8       0    0    7    0
 77      1     3       0    0    6    0
 78      1     6      10    0    0    0
 79      1     3       0    0    0   10
 80      1     2       0    0    2    0
 81      1     3       0    4    0    0
 82      1     7       0    0    0   10
 83      1     4       8    0    0    0
 84      1     2       0    0    3    0
 85      1     3       0    0    0    5
 86      1     2       0    2    0    0
 87      1     1       0    0    2    0
 88      1     5       0    0    0   10
 89      1     4       0    0    5    0
 90      1     4       0    0    0    9
 91      1     4       0    7    0    0
 92      1     0       0    0    0    0
************************************************************************
RESOURCEAVAILABILITIES:
  R 1  R 2  R 3  R 4
   30   20   24   26
************************************************************************
